
Gurobi 9.5.2 (mac64[arm]) logging started Mon Apr 24 16:32:28 2023

Set parameter LogFile to value "Java/output/iterative_model/scenario_seed_4_nJob_30_machineCount_1/mip_increment_1/log.txt"
Gurobi Optimizer version 9.5.2 build v9.5.2rc0 (mac64[arm])
Thread count: 8 physical cores, 8 logical processors, using up to 8 threads
Optimize a model with 1610 rows, 8547 columns and 88310 nonzeros
Model fingerprint: 0x2952f233
Variable types: 0 continuous, 8547 integer (8547 binary)
Coefficient statistics:
  Matrix range     [1e+00, 3e+02]
  Objective range  [2e+01, 6e+06]
  Bounds range     [1e+00, 1e+00]
  RHS range        [1e+00, 1e+00]
Found heuristic solution: objective 3.586976e+07
Presolve removed 132 rows and 947 columns
Presolve time: 0.12s
Presolved: 1478 rows, 7600 columns, 75671 nonzeros
Variable types: 0 continuous, 7600 integer (7590 binary)
Found heuristic solution: objective 3.247938e+07

Root relaxation: objective 6.744969e+03, 1033 iterations, 0.03 seconds (0.07 work units)

    Nodes    |    Current Node    |     Objective Bounds      |     Work
 Expl Unexpl |  Obj  Depth IntInf | Incumbent    BestBd   Gap | It/Node Time

     0     0 6744.96892    0   71 3.2479e+07 6744.96892   100%     -    0s
H    0     0                    7026208.0000 6744.96892   100%     -    0s
H    0     0                    2225728.0000 6744.96892   100%     -    0s
H    0     0                    2225488.0000 6810.19877   100%     -    0s
     0     0 6810.19877    0  110 2225488.00 6810.19877   100%     -    0s
H    0     0                    1674464.0000 6810.19877   100%     -    0s
H    0     0                    457744.00000 6810.19877  98.5%     -    0s
     0     0 6859.54876    0  125 457744.000 6859.54876  98.5%     -    0s
H    0     0                    457696.00000 6859.54876  98.5%     -    0s
H    0     0                    457680.00000 6862.28182  98.5%     -    0s
     0     0 6862.28182    0  120 457680.000 6862.28182  98.5%     -    0s
H    0     0                    457648.00000 6897.76403  98.5%     -    0s
     0     0 6897.76403    0  134 457648.000 6897.76403  98.5%     -    0s
H    0     0                    457520.00000 6897.76403  98.5%     -    0s
     0     0 6909.03246    0  120 457520.000 6909.03246  98.5%     -    0s
     0     0 6909.66221    0  132 457520.000 6909.66221  98.5%     -    0s
     0     0 6909.67246    0  138 457520.000 6909.67246  98.5%     -    0s
H    0     0                    108288.00000 6909.67246  93.6%     -    0s
H    0     0                    8320.0000000 6909.67246  17.0%     -    0s
H    0     0                    7920.0000000 6909.67246  12.8%     -    0s
     0     0 6932.81682    0  178 7920.00000 6932.81682  12.5%     -    0s
     0     0 6932.81682    0   93 7920.00000 6932.81682  12.5%     -    0s
H    0     0                    7888.0000000 6932.81682  12.1%     -    0s
H    0     0                    7856.0000000 6932.81682  11.8%     -    1s
     0     0 6932.81682    0  115 7856.00000 6932.81682  11.8%     -    1s
     0     0 6932.81682    0  127 7856.00000 6932.81682  11.8%     -    1s
     0     0 6932.81682    0  133 7856.00000 6932.81682  11.8%     -    1s
     0     0 6933.24538    0  169 7856.00000 6933.24538  11.7%     -    1s
     0     0 6933.86532    0  171 7856.00000 6933.86532  11.7%     -    1s
     0     0 6955.42823    0  188 7856.00000 6955.42823  11.5%     -    1s
H    0     0                    7824.0000000 6955.42823  11.1%     -    1s
     0     0 6956.30373    0  189 7824.00000 6956.30373  11.1%     -    1s
     0     0 6956.49035    0  194 7824.00000 6956.49035  11.1%     -    1s
     0     0 6956.55569    0  200 7824.00000 6956.55569  11.1%     -    1s
H    0     0                    7456.0000000 6956.55569  6.70%     -    1s
H    0     0                    7424.0000000 6956.55569  6.30%     -    1s
     0     0 6981.24277    0  219 7424.00000 6981.24277  5.96%     -    1s
H    0     0                    7392.0000000 6981.24277  5.56%     -    1s
     0     0 6989.09091    0  207 7392.00000 6989.09091  5.45%     -    1s
     0     0 6990.31747    0  220 7392.00000 6990.31747  5.43%     -    1s
     0     0 6990.54314    0  229 7392.00000 6990.54314  5.43%     -    1s
H    0     0                    7344.0000000 6990.54314  4.81%     -    1s
     0     0 6990.62917    0  241 7344.00000 6990.62917  4.81%     -    1s
     0     0 6995.35986    0  227 7344.00000 6995.35986  4.75%     -    1s
H    0     0                    7328.0000000 6995.35986  4.54%     -    1s
     0     0 6998.16025    0  234 7328.00000 6998.16025  4.50%     -    1s
     0     0 6998.60595    0  238 7328.00000 6998.60595  4.50%     -    1s
     0     0 6998.76545    0  238 7328.00000 6998.76545  4.49%     -    1s
     0     0 7003.40811    0  226 7328.00000 7003.40811  4.43%     -    1s
     0     0 7003.55585    0  232 7328.00000 7003.55585  4.43%     -    1s
     0     0 7004.27109    0  249 7328.00000 7004.27109  4.42%     -    1s
     0     0 7004.50245    0  229 7328.00000 7004.50245  4.41%     -    1s
H    0     0                    7296.0000000 7004.50245  4.00%     -    1s
H    0     0                    7280.0000000 7004.50245  3.78%     -    1s
     0     2 7004.50245    0  222 7280.00000 7004.50245  3.78%     -    1s
H   31    35                    7264.0000000 7014.03799  3.44%   396    1s
H   69    54                    7232.0000000 7016.25628  2.98%   391    1s

Cutting planes:
  Gomory: 4
  Cover: 35
  Clique: 105
  MIR: 100
  StrongCG: 43
  GUB cover: 74
  Inf proof: 4
  Zero half: 21
  RLT: 8
  Relax-and-lift: 2

Explored 1221 nodes (277211 simplex iterations) in 4.07 seconds (9.25 work units)
Thread count was 8 (of 8 available processors)

Solution count 10: 7232 7264 7280 ... 7824

Optimal solution found (tolerance 1.00e-04)
Best objective 7.232000000000e+03, best bound 7.232000000000e+03, gap 0.0000%

Gurobi 9.5.2 (mac64[arm]) logging started Mon Apr 24 16:32:32 2023

Set parameter LogFile to value "Java/output/iterative_model/scenario_seed_4_nJob_30_machineCount_1/mip_increment_1/log.txt"
Gurobi Optimizer version 9.5.2 build v9.5.2rc0 (mac64[arm])
Thread count: 8 physical cores, 8 logical processors, using up to 8 threads
Optimize a model with 1604 rows, 5939 columns and 74387 nonzeros
Model fingerprint: 0x9806fe1d
Variable types: 0 continuous, 5939 integer (5939 binary)
Coefficient statistics:
  Matrix range     [1e+00, 3e+02]
  Objective range  [3e+02, 9e+05]
  Bounds range     [1e+00, 1e+00]
  RHS range        [1e+00, 1e+00]
Found heuristic solution: objective 3665500.0000
Presolve removed 451 rows and 707 columns
Presolve time: 0.09s
Presolved: 1153 rows, 5232 columns, 64826 nonzeros
Variable types: 0 continuous, 5232 integer (5230 binary)
Found heuristic solution: objective 3168476.0000

Root relaxation: objective 4.188507e+03, 1187 iterations, 0.03 seconds (0.06 work units)

    Nodes    |    Current Node    |     Objective Bounds      |     Work
 Expl Unexpl |  Obj  Depth IntInf | Incumbent    BestBd   Gap | It/Node Time

     0     0 4188.50748    0   66 3168476.00 4188.50748   100%     -    0s
H    0     0                    1805808.0000 4188.50748   100%     -    0s
H    0     0                    1803876.0000 4188.50748   100%     -    0s
H    0     0                    1055852.0000 4188.50748   100%     -    0s
H    0     0                    462620.00000 4188.50748  99.1%     -    0s
     0     0 4200.50588    0   89 462620.000 4200.50588  99.1%     -    0s
H    0     0                    81312.000000 4200.50588  94.8%     -    0s
     0     0 4206.21957    0   94 81312.0000 4206.21957  94.8%     -    0s
H    0     0                    77804.000000 4206.21957  94.6%     -    0s
     0     0 4207.92499    0  110 77804.0000 4207.92499  94.6%     -    0s
     0     0 4208.01144    0  114 77804.0000 4208.01144  94.6%     -    0s
     0     0 4208.01144    0  117 77804.0000 4208.01144  94.6%     -    0s
H    0     0                    20012.000000 4221.04350  78.9%     -    0s
H    0     0                    7060.0000000 4221.04350  40.2%     -    0s
     0     0 4221.04350    0  128 7060.00000 4221.04350  40.2%     -    0s
H    0     0                    7048.0000000 4221.04350  40.1%     -    0s
H    0     0                    6856.0000000 4221.04350  38.4%     -    0s
     0     0 4222.76691    0  124 6856.00000 4222.76691  38.4%     -    0s
     0     0 4222.80029    0  127 6856.00000 4222.80029  38.4%     -    0s
     0     0 4234.92694    0  182 6856.00000 4234.92694  38.2%     -    0s
     0     0 4234.92694    0   61 6856.00000 4234.92694  38.2%     -    0s
H    0     0                    6832.0000000 4234.92694  38.0%     -    0s
     0     0 4234.92694    0  143 6832.00000 4234.92694  38.0%     -    0s
     0     0 4234.92694    0  149 6832.00000 4234.92694  38.0%     -    0s
     0     0 4234.92694    0  152 6832.00000 4234.92694  38.0%     -    0s
     0     0 4235.86283    0  160 6832.00000 4235.86283  38.0%     -    0s
     0     0 4235.88115    0  163 6832.00000 4235.88115  38.0%     -    0s
     0     0 4235.88138    0  164 6832.00000 4235.88138  38.0%     -    0s
     0     0 4255.63653    0  165 6832.00000 4255.63653  37.7%     -    0s
H    0     0                    6828.0000000 4255.63653  37.7%     -    0s
     0     0 4256.26371    0  167 6828.00000 4256.26371  37.7%     -    0s
     0     0 4256.28031    0  167 6828.00000 4256.28031  37.7%     -    0s
H    0     0                    4432.0000000 4256.28031  3.96%     -    1s
     0     0 4281.75891    0  123 4432.00000 4281.75891  3.39%     -    1s
     0     0 4321.14425    0  156 4432.00000 4321.14425  2.50%     -    1s
     0     0 4324.70873    0  165 4432.00000 4324.70873  2.42%     -    1s
     0     0 4324.91990    0  152 4432.00000 4324.91990  2.42%     -    1s
     0     0 4324.91990    0  155 4432.00000 4324.91990  2.42%     -    1s
     0     0 4412.40638    0  120 4432.00000 4412.40638  0.44%     -    1s
     0     0 4416.52115    0  140 4432.00000 4416.52115  0.35%     -    1s
     0     0 4416.53915    0  150 4432.00000 4416.53915  0.35%     -    1s
     0     0 4419.29557    0  133 4432.00000 4419.29557  0.29%     -    1s
     0     0 4419.29557    0   50 4432.00000 4419.29557  0.29%     -    1s
     0     0 4419.29557    0   77 4432.00000 4419.29557  0.29%     -    1s
     0     0 4421.39932    0  100 4432.00000 4421.39932  0.24%     -    1s
     0     0 4423.65492    0  104 4432.00000 4423.65492  0.19%     -    1s
     0     0 4424.51443    0  102 4432.00000 4424.51443  0.17%     -    1s
     0     0 4424.85436    0  122 4432.00000 4424.85436  0.16%     -    1s
     0     0 4424.86162    0  123 4432.00000 4424.86162  0.16%     -    1s
     0     0 4430.13766    0   80 4432.00000 4430.13766  0.04%     -    1s

Cutting planes:
  Gomory: 1
  Cover: 4
  Clique: 20
  MIR: 17
  StrongCG: 6
  GUB cover: 35
  Zero half: 15
  RLT: 3

Explored 1 nodes (12511 simplex iterations) in 1.41 seconds (2.26 work units)
Thread count was 8 (of 8 available processors)

Solution count 10: 4432 6828 6832 ... 462620

Optimal solution found (tolerance 1.00e-04)
Best objective 4.432000000000e+03, best bound 4.432000000000e+03, gap 0.0000%

Gurobi 9.5.2 (mac64[arm]) logging started Mon Apr 24 16:32:33 2023

Set parameter LogFile to value "Java/output/iterative_model/scenario_seed_4_nJob_30_machineCount_1/mip_increment_1/log.txt"
Gurobi Optimizer version 9.5.2 build v9.5.2rc0 (mac64[arm])
Thread count: 8 physical cores, 8 logical processors, using up to 8 threads
Optimize a model with 1608 rows, 4004 columns and 47799 nonzeros
Model fingerprint: 0x4174b474
Variable types: 0 continuous, 4004 integer (4004 binary)
Coefficient statistics:
  Matrix range     [1e+00, 3e+02]
  Objective range  [1e+02, 1e+05]
  Bounds range     [1e+00, 1e+00]
  RHS range        [1e+00, 1e+00]
Presolve removed 877 rows and 738 columns
Presolve time: 0.07s
Presolved: 731 rows, 3266 columns, 37762 nonzeros
Variable types: 0 continuous, 3266 integer (3262 binary)

Root relaxation: objective 1.014057e+04, 991 iterations, 0.02 seconds (0.04 work units)

    Nodes    |    Current Node    |     Objective Bounds      |     Work
 Expl Unexpl |  Obj  Depth IntInf | Incumbent    BestBd   Gap | It/Node Time

     0     0 10140.5733    0   62          - 10140.5733      -     -    0s
H    0     0                    313513.00000 10140.5733  96.8%     -    0s
H    0     0                    306382.00000 10140.5733  96.7%     -    0s
H    0     0                    263405.00000 10140.5733  96.2%     -    0s
H    0     0                    136818.00000 10416.5139  92.4%     -    0s
     0     0 10496.8788    0  115 136818.000 10496.8788  92.3%     -    0s
H    0     0                    77357.000000 10496.8788  86.4%     -    0s
H    0     0                    64105.000000 10496.8788  83.6%     -    0s
     0     0 10762.7867    0  107 64105.0000 10762.7867  83.2%     -    0s
     0     0 10762.7867    0  116 64105.0000 10762.7867  83.2%     -    0s
H    0     0                    44967.000000 10762.7867  76.1%     -    0s
H    0     0                    11579.000000 10762.7867  7.05%     -    0s
H    0     0                    11573.000000 10762.7867  7.00%     -    0s
     0     0 10793.5286    0  101 11573.0000 10793.5286  6.74%     -    0s
     0     0 10793.5286    0   68 11573.0000 10793.5286  6.74%     -    0s
     0     0 11030.0359    0   73 11573.0000 11030.0359  4.69%     -    0s
H    0     0                    11256.000000 11030.0359  2.01%     -    0s
H    0     0                    11147.000000 11030.0359  1.05%     -    0s
     0     0 11119.0000    0   33 11147.0000 11119.0000  0.25%     -    0s
     0     0 11119.0000    0   34 11147.0000 11119.0000  0.25%     -    0s
H    0     0                    11121.000000 11119.0000  0.02%     -    0s
     0     0 11119.0000    0    7 11121.0000 11119.0000  0.02%     -    0s
H    0     0                    11119.000000 11119.0000  0.00%     -    0s

Cutting planes:
  Gomory: 8
  Cover: 5
  Clique: 26
  MIR: 11
  StrongCG: 4
  GUB cover: 14
  Zero half: 3
  RLT: 9
  Relax-and-lift: 2

Explored 1 nodes (5916 simplex iterations) in 0.52 seconds (0.86 work units)
Thread count was 8 (of 8 available processors)

Solution count 10: 11119 11121 11147 ... 136818

Optimal solution found (tolerance 1.00e-04)
Best objective 1.111900000000e+04, best bound 1.111900000000e+04, gap 0.0000%

Gurobi 9.5.2 (mac64[arm]) logging started Mon Apr 24 16:32:34 2023

Set parameter LogFile to value "Java/output/iterative_model/scenario_seed_4_nJob_30_machineCount_1/mip_increment_1/log.txt"
Gurobi Optimizer version 9.5.2 build v9.5.2rc0 (mac64[arm])
Thread count: 8 physical cores, 8 logical processors, using up to 8 threads
Optimize a model with 1714 rows, 24605 columns and 286600 nonzeros
Model fingerprint: 0x3882d7e2
Variable types: 0 continuous, 24605 integer (24605 binary)
Coefficient statistics:
  Matrix range     [1e+00, 3e+02]
  Objective range  [5e+00, 6e+06]
  Bounds range     [1e+00, 1e+00]
  RHS range        [1e+00, 1e+00]

Warning: Completing partial solution with 24510 unfixed non-continuous variables out of 24605
User MIP start produced solution with objective 20083 (0.02s)
Loaded user MIP start with objective 20083

Presolve removed 52 rows and 2499 columns
Presolve time: 0.33s
Presolved: 1662 rows, 22106 columns, 253014 nonzeros
Variable types: 0 continuous, 22106 integer (22082 binary)

Root relaxation: objective 1.219080e+04, 16107 iterations, 1.61 seconds (3.85 work units)

    Nodes    |    Current Node    |     Objective Bounds      |     Work
 Expl Unexpl |  Obj  Depth IntInf | Incumbent    BestBd   Gap | It/Node Time

     0     0 12190.7964    0  297 20083.0000 12190.7964  39.3%     -    2s
H    0     0                    19663.000000 12190.7964  38.0%     -    2s
H    0     0                    19314.000000 12190.7964  36.9%     -    2s
     0     0 12264.7235    0  445 19314.0000 12264.7235  36.5%     -    3s
     0     0 12264.7235    0  435 19314.0000 12264.7235  36.5%     -    3s
     0     0 12284.0656    0  436 19314.0000 12284.0656  36.4%     -    4s
     0     0 12284.0656    0  300 19314.0000 12284.0656  36.4%     -    6s
H    0     0                    18103.000000 12284.0656  32.1%     -    6s
     0     0 12284.0656    0  463 18103.0000 12284.0656  32.1%     -    7s
H    0     0                    18090.000000 12284.0656  32.1%     -    8s
H    0     0                    18086.000000 12284.0656  32.1%     -    8s
H    0     0                    17921.000000 12284.0656  31.5%     -    8s
     0     0 12293.9726    0  489 17921.0000 12293.9726  31.4%     -    8s
     0     0 12293.9726    0  481 17921.0000 12293.9726  31.4%     -    8s
     0     0 12317.4660    0  597 17921.0000 12317.4660  31.3%     -   10s
     0     0 12326.6039    0  642 17921.0000 12326.6039  31.2%     -   11s
     0     0 12328.2266    0  627 17921.0000 12328.2266  31.2%     -   11s
     0     0 12329.5970    0  654 17921.0000 12329.5970  31.2%     -   11s
     0     0 12329.8854    0  636 17921.0000 12329.8854  31.2%     -   12s
     0     0 12329.9003    0  650 17921.0000 12329.9003  31.2%     -   12s
     0     0 12348.9837    0  724 17921.0000 12348.9837  31.1%     -   13s
     0     0 12351.9318    0  708 17921.0000 12351.9318  31.1%     -   14s
     0     0 12352.2032    0  718 17921.0000 12352.2032  31.1%     -   14s
     0     0 12352.3193    0  717 17921.0000 12352.3193  31.1%     -   14s
     0     0 12352.3433    0  714 17921.0000 12352.3433  31.1%     -   14s
     0     0 12373.6978    0  759 17921.0000 12373.6978  31.0%     -   16s
H    0     0                    17587.000000 12373.6978  29.6%     -   16s
     0     0 12381.8580    0  791 17587.0000 12381.8580  29.6%     -   17s
     0     0 12383.3264    0  775 17587.0000 12383.3264  29.6%     -   18s
     0     0 12383.5058    0  784 17587.0000 12383.5058  29.6%     -   18s
     0     0 12383.5824    0  787 17587.0000 12383.5824  29.6%     -   18s
     0     0 12395.8015    0  798 17587.0000 12395.8015  29.5%     -   19s
H    0     0                    17581.000000 12395.8015  29.5%     -   19s
H    0     0                    17572.000000 12395.8015  29.5%     -   20s
H    0     0                    17399.000000 12395.8015  28.8%     -   21s
     0     0 12404.4028    0  827 17399.0000 12404.4028  28.7%     -   21s
     0     0 12405.7614    0  857 17399.0000 12405.7614  28.7%     -   22s
H    0     0                    17396.000000 12405.7614  28.7%     -   22s
     0     0 12406.1076    0  860 17396.0000 12406.1076  28.7%     -   22s
     0     0 12406.1969    0  853 17396.0000 12406.1969  28.7%     -   22s
     0     0 12412.9948    0  864 17396.0000 12412.9948  28.6%     -   23s
H    0     0                    17374.000000 12412.9948  28.6%     -   24s
     0     0 12417.6915    0  859 17374.0000 12417.6915  28.5%     -   24s
H    0     0                    16336.000000 12417.6915  24.0%     -   24s
     0     0 12419.0975    0  872 16336.0000 12419.0975  24.0%     -   24s
     0     0 12419.3582    0  884 16336.0000 12419.3582  24.0%     -   25s
     0     0 12419.3980    0  883 16336.0000 12419.3980  24.0%     -   25s
     0     0 12432.2581    0  884 16336.0000 12432.2581  23.9%     -   26s
H    0     0                    15641.000000 12432.2581  20.5%     -   26s
H    0     0                    15630.000000 12432.2581  20.5%     -   26s
     0     0 12435.7311    0  958 15630.0000 12435.7311  20.4%     -   27s
     0     0 12437.6787    0  949 15630.0000 12437.6787  20.4%     -   28s
     0     0 12438.1763    0  940 15630.0000 12438.1763  20.4%     -   28s
     0     0 12438.3747    0  960 15630.0000 12438.3747  20.4%     -   29s
     0     0 12438.3943    0  953 15630.0000 12438.3943  20.4%     -   29s
     0     0 12447.1341    0  957 15630.0000 12447.1341  20.4%     -   30s
H    0     0                    15625.000000 12447.1341  20.3%     -   30s
     0     0 12451.1370    0  975 15625.0000 12451.1370  20.3%     -   32s
     0     0 12453.3548    0  990 15625.0000 12453.3548  20.3%     -   33s
     0     0 12454.3436    0 1006 15625.0000 12454.3436  20.3%     -   33s
     0     0 12454.8503    0 1001 15625.0000 12454.8503  20.3%     -   34s
     0     0 12454.8793    0 1006 15625.0000 12454.8793  20.3%     -   34s
     0     0 12459.5980    0  952 15625.0000 12459.5980  20.3%     -   35s
     0     0 12461.7713    0  992 15625.0000 12461.7713  20.2%     -   37s
     0     0 12462.8545    0 1046 15625.0000 12462.8545  20.2%     -   37s
     0     0 12463.0021    0 1038 15625.0000 12463.0021  20.2%     -   37s
     0     0 12465.4498    0 1072 15625.0000 12465.4498  20.2%     -   39s
H    0     0                    15623.000000 12465.4498  20.2%     -   39s
     0     0 12466.2679    0 1072 15623.0000 12466.2679  20.2%     -   39s
     0     0 12466.7758    0 1079 15623.0000 12466.7758  20.2%     -   40s
     0     0 12466.9760    0 1084 15623.0000 12466.9760  20.2%     -   40s
     0     0 12469.6621    0 1054 15623.0000 12469.6621  20.2%     -   41s
     0     0 12471.7309    0 1095 15623.0000 12471.7309  20.2%     -   43s
     0     0 12472.3541    0 1084 15623.0000 12472.3541  20.2%     -   43s
H    0     0                    15501.000000 12472.3541  19.5%     -   44s
     0     0 12472.6293    0 1130 15501.0000 12472.6293  19.5%     -   44s
     0     0 12472.8184    0 1106 15501.0000 12472.8184  19.5%     -   44s
     0     0 12475.3860    0 1130 15501.0000 12475.3860  19.5%     -   45s
H    0     0                    15500.000000 12475.3860  19.5%     -   45s
     0     0 12476.0317    0 1122 15500.0000 12476.0317  19.5%     -   46s
     0     0 12476.3946    0 1152 15500.0000 12476.3946  19.5%     -   47s
     0     0 12476.5577    0 1150 15500.0000 12476.5577  19.5%     -   47s
H    0     0                    15257.000000 12476.5577  18.2%     -   47s
     0     0 12478.8874    0 1147 15257.0000 12478.8874  18.2%     -   48s
H    0     0                    14864.000000 12478.8874  16.0%     -   48s
     0     0 12479.7674    0 1153 14864.0000 12479.7674  16.0%     -   50s
H    0     0                    14862.000000 12479.7674  16.0%     -   50s
H    0     0                    14054.000000 12479.7674  11.2%     -   50s
     0     0 12480.2150    0 1176 14054.0000 12480.2150  11.2%     -   50s
     0     0 12480.2892    0 1192 14054.0000 12480.2892  11.2%     -   51s
     0     0 12484.4227    0 1167 14054.0000 12484.4227  11.2%     -   52s
     0     0 12485.3257    0 1210 14054.0000 12485.3257  11.2%     -   53s
     0     0 12485.8626    0 1197 14054.0000 12485.8626  11.2%     -   53s
     0     0 12486.0900    0 1210 14054.0000 12486.0900  11.2%     -   54s
     0     0 12487.1235    0 1195 14054.0000 12487.1235  11.1%     -   55s
     0     0 12487.1235    0 1165 14054.0000 12487.1235  11.1%     -   56s
     0     2 12487.1452    0 1159 14054.0000 12487.1452  11.1%     -   60s
     7    16 12503.4349    3 1171 14054.0000 12489.1633  11.1%  5005   75s
    15    24 12533.7056    4 1081 14054.0000 12492.1863  11.1% 11102   91s
    23    32 12539.6301    4 1137 14054.0000 12492.1863  11.1% 17389  123s
    31    40 12538.9736    5 1070 14054.0000 12492.1863  11.1% 17452  128s
H   32    40                    14052.000000 12492.1863  11.1% 16906  128s
    39    48 12546.7008    5 1119 14052.0000 12492.1863  11.1% 15171  135s
    47    58 12539.7341    6 1061 14052.0000 12492.1863  11.1% 13877  146s
    57    68 12541.1029    7 1052 14052.0000 12492.1863  11.1% 12632  160s
    67    76 12630.0105    8 1050 14052.0000 12492.1863  11.1% 12715  172s
H   68    76                    14050.000000 12492.1863  11.1% 12528  172s
H   70    76                    14049.000000 12492.1863  11.1% 12566  172s
H   73    76                    13564.000000 12492.1863  7.90% 12616  172s
    75    84 12661.5849    9  982 13564.0000 12492.1863  7.90% 12734  182s
    83    95 12655.8507    9 1048 13564.0000 12492.1863  7.90% 12743  195s
    94   106 12726.2624   10 1027 13564.0000 12492.1863  7.90% 11945  201s
H  105   116                    13560.000000 12492.1863  7.87% 11251  210s
H  107   116                    13549.000000 12492.1863  7.80% 11203  210s
H  108   116                    13539.000000 12492.1863  7.73% 11246  210s
H  112   116                    13482.000000 12492.1863  7.34% 11290  210s
   117   125 12729.5781   11 1015 13482.0000 12492.1863  7.34% 11169  238s
   130   135 12813.5126   12  954 13482.0000 12492.1863  7.34% 11144  245s
H  146   145                    13468.000000 12492.1863  7.25% 10568  259s
H  146   145                    13467.000000 12492.1863  7.24% 10568  259s
H  153   145                    13238.000000 12492.1863  5.63% 10912  259s
H  156   145                    13215.000000 12492.1863  5.47% 10779  259s
   160   161 12793.4411   13  954 13215.0000 12492.1863  5.47% 10736  271s
   178   168 12859.6690   14  909 13215.0000 12492.1863  5.47% 10417  288s
H  193   175                    13213.000000 12492.1863  5.46% 10426  319s
H  196   175                    13211.000000 12492.1863  5.44% 10424  319s
H  208   175                    13210.000000 12492.1863  5.43% 10769  319s
   210   190 13059.4595   16  808 13210.0000 12492.1863  5.43% 10787  340s
   231   204 13077.3891   18  860 13210.0000 12492.1863  5.43% 10575  358s
H  253   219                    13209.000000 12492.1863  5.43% 10159  366s
   274   233 13016.1547   21  811 13209.0000 12492.1863  5.43%  9723  381s
   304   245 13059.6513   24  744 13209.0000 12492.1863  5.43%  9189  391s
   328   256 13117.9331   27  728 13209.0000 12492.1863  5.43%  8949  400s
H  361   273                    13203.000000 12492.1863  5.38%  8488  415s
   390   288 13146.4968   32  698 13203.0000 12513.3602  5.22%  8138  431s
   430   299 12560.8453    5 1145 13203.0000 12513.3602  5.22%  7865  450s
   460   319 12730.6531    7 1047 13203.0000 12513.3602  5.22%  7748  464s
   486   336 12737.9599    8 1058 13203.0000 12513.3602  5.22%  7667  485s
   509   352 12701.0036    7 1014 13203.0000 12513.3602  5.22%  7676  496s
   541   375 12789.8128   10  973 13203.0000 12513.3602  5.22%  7590  509s
   572   395 12949.4186   11  964 13203.0000 12513.3602  5.22%  7421  527s
   602   412 12867.2010   11  874 13203.0000 12513.3602  5.22%  7366  544s
   631   434 13061.0164   12  894 13203.0000 12513.3602  5.22%  7303  579s
   671   459 13010.1657   15  862 13203.0000 12513.3602  5.22%  7261  592s

Cutting planes:
  Gomory: 4
  Cover: 42
  Clique: 461
  MIR: 570
  StrongCG: 340
  GUB cover: 207
  Inf proof: 1
  Zero half: 14
  Mod-K: 1
  RLT: 7

Explored 716 nodes (5325539 simplex iterations) in 592.02 seconds (1793.77 work units)
Thread count was 8 (of 8 available processors)

Solution count 10: 13203 13209 13210 ... 13482

Time limit reached
Best objective 1.320300000000e+04, best bound 1.251400000000e+04, gap 5.2185%
